p cnf 1358 2125
53 77 -87 101 0
53 77 -87 -101 0
-9 -18 24 102 0
24 -78 -90 -102 0
18 20 73 103 0
18 20 73 -103 0
28 41 -61 104 0
-61 -70 -104 105 0
-70 -77 -105 106 0
-77 81 -94 -106 0
-3 -32 -43 107 0
-43 -60 -107 108 0
-60 63 -78 -108 0
-21 -53 109 110 0
-21 -53 109 -110 0
-21 -53 -109 110 0
-21 -53 -109 -110 0
-1 12 -54 111 0
-54 74 -111 112 0
74 -79 82 -112 0
5 -18 36 113 0
36 -46 -113 114 0
-46 50 -114 115 0
50 53 -115 116 0
53 -55 -116 117 0
-55 -64 -90 -117 0
39 44 51 -100 0
45 83 118 119 0
45 83 118 -119 0
45 83 -118 119 0
45 83 -118 -119 0
-11 -48 58 120 0
58 76 -120 121 0
76 83 84 -121 0
27 35 38 122 0
38 45 -122 123 0
45 -78 -123 124 0
-78 81 -94 -124 0
9 -15 -32 125 0
-32 -34 -73 -125 0
18 -35 -40 126 0
-40 43 -126 127 0
43 57 -127 128 0
57 -68 90 -128 0
-8 26 29 129 0
29 35 -51 -129 0
-13 -42 -68 83 0
33 -35 68 79 0
21 42 43 130 0
43 84 -98 -130 0
23 38 50 131 0
50 72 81 -131 0
37 -40 82 132 0
37 -40 82 -132 0
5 -22 -66 -70 0
-1 -5 -17 74 0
9 -13 -16 133 0
-16 20 -133 134 0
20 -56 78 -134 0
19 43 46 135 0
46 49 -135 136 0
49 -52 -136 137 0
-52 -96 -137 138 0
-96 98 -99 -138 0
58 -69 -80 139 0
58 -69 -80 -139 0
-7 9 13 140 0
13 59 -140 141 0
59 77 -82 -141 0
14 18 30 142 0
30 -47 -142 143 0
-47 -86 -143 144 0
-86 91 95 -144 0
-31 -50 67 -92 0
-11 60 70 -79 0
56 60 -63 145 0
56 60 -63 -145 0
-11 -27 95 146 0
-11 -27 95 -146 0
-7 60 -75 147 0
-75 86 -147 148 0
86 92 -148 149 0
92 95 97 -149 0
-34 -39 -46 150 0
-46 -65 -150 151 0
-65 -89 -94 -151 0
-9 71 76 152 0
76 -79 -92 -152 0
60 -62 -65 -86 0
17 41 -51 98 0
-7 45 53 153 0
-7 45 53 -153 0
5 91 92 154 0
5 91 92 -154 0
59 -68 89 155 0
59 -68 89 -155 0
-3 50 -62 156 0
-62 66 -156 157 0
66 68 -157 158 0
68 -71 79 -158 0
-25 60 66 159 0
-25 60 66 -159 0
27 -51 160 161 0
27 -51 160 -161 0
27 -51 -160 161 0
27 -51 -160 -161 0
-29 -39 50 162 0
50 51 -162 163 0
51 -92 -163 164 0
-92 -96 -100 -164 0
-3 10 15 165 0
15 -20 -165 166 0
-20 30 -166 167 0
30 -51 64 -167 0
4 47 81 -86 0
20 67 -69 168 0
-69 -74 -168 169 0
-74 78 -169 170 0
78 84 95 -170 0
21 38 -56 171 0
-56 -69 -171 172 0
-69 73 -172 173 0
73 85 -173 174 0
85 -88 -174 175 0
-88 94 -100 -175 0
-6 -26 -29 -45 0
-23 -32 -52 176 0
-23 -32 -52 -176 0
11 22 -23 177 0
-23 -33 -177 178 0
-33 -36 -178 179 0
-36 39 -179 180 0
39 -47 -180 181 0
-47 -49 -93 -181 0
-6 21 43 182 0
43 -66 -70 -182 0
4 -14 -22 183 0
-22 -27 -183 184 0
-27 -59 72 -184 0
-50 -52 76 185 0
-50 -52 76 -185 0
2 -97 186 187 0
2 -97 186 -187 0
2 -97 -186 187 0
2 -97 -186 -187 0
-5 9 -61 188 0
-61 -64 -89 -188 0
1 6 65 189 0
1 6 65 -189 0
-13 -53 78 190 0
-13 -53 78 -190 0
25 59 -73 191 0
-73 -88 93 -191 0
5 6 -18 192 0
-18 -48 -192 193 0
-48 -60 77 -193 0
2 5 7 194 0
7 39 -194 195 0
39 77 -83 -195 0
11 14 15 196 0
15 -47 -196 197 0
-47 49 -197 198 0
49 -69 -198 199 0
-69 73 -88 -199 0
1 -71 91 200 0
1 -71 91 -200 0
-45 65 -79 201 0
-45 65 -79 -201 0
-4 7 -56 202 0
-56 88 99 -202 0
20 -72 203 204 0
20 -72 203 -204 0
20 -72 -203 204 0
20 -72 -203 -204 0
35 -44 47 205 0
47 67 68 -205 0
-41 77 96 206 0
96 98 100 -206 0
94 99 207 208 0
94 99 207 -208 0
94 99 -207 208 0
94 99 -207 -208 0
23 -32 -44 209 0
-44 -72 -209 210 0
-72 -85 -95 -210 0
55 66 211 212 0
55 66 211 -212 0
55 66 -211 212 0
55 66 -211 -212 0
-5 14 24 213 0
24 -54 -213 214 0
-54 60 -96 -214 0
50 69 70 215 0
50 69 70 -215 0
-26 -46 57 216 0
57 -62 -216 217 0
-62 -81 -217 218 0
-81 83 -218 219 0
83 88 -94 -219 0
28 91 -93 220 0
28 91 -93 -220 0
-20 -30 73 221 0
73 75 -221 222 0
75 -90 92 -222 0
-16 -31 -98 223 0
-16 -31 -98 -223 0
10 49 -93 224 0
10 49 -93 -224 0
-75 -88 225 226 0
-75 -88 225 -226 0
-75 -88 -225 226 0
-75 -88 -225 -226 0
-7 -9 -32 227 0
-32 34 -35 -227 0
13 51 -52 228 0
-52 -66 76 -228 0
25 52 61 229 0
61 -73 -77 -229 0
46 -49 -94 230 0
46 -49 -94 -230 0
36 47 58 231 0
58 61 90 -231 0
15 -29 33 232 0
33 -44 -49 -232 0
-5 -14 -31 -36 0
54 55 -71 233 0
-71 75 -233 234 0
75 77 98 -234 0
1 -16 -19 235 0
-19 46 -235 236 0
46 83 98 -236 0
3 -18 -27 237 0
-27 -64 -237 238 0
-64 -89 100 -238 0
11 -12 78 81 0
-3 5 6 239 0
6 -8 -239 240 0
-8 10 -240 241 0
10 11 -241 242 0
11 -13 -242 243 0
-13 -18 -243 244 0
-18 78 -99 -244 0
64 -70 -82 245 0
64 -70 -82 -245 0
-56 77 -98 246 0
-56 77 -98 -246 0
-7 -16 28 247 0
28 39 -57 -247 0
-41 49 50 248 0
50 69 84 -248 0
2 -20 55 -91 0
-34 39 56 -84 0
-4 -12 40 249 0
40 77 94 -249 0
-31 37 59 250 0
59 73 -88 -250 0
88 -92 251 252 0
88 -92 251 -252 0
88 -92 -251 252 0
88 -92 -251 -252 0
-3 14 -53 -60 0
-26 -31 78 92 0
-9 -12 22 253 0
22 48 80 -253 0
61 68 77 254 0
77 79 -254 255 0
79 84 95 -255 0
-15 -24 35 256 0
35 36 -256 257 0
36 43 -257 258 0
43 -53 -258 259 0
-53 -80 -259 260 0
-80 88 97 -260 0
-7 26 -31 261 0
-31 42 -261 262 0
42 -59 -262 263 0
-59 64 -84 -263 0
-1 42 46 -75 0
-15 -28 47 264 0
47 -59 84 -264 0
-30 49 82 265 0
-30 49 82 -265 0
27 37 51 266 0
51 -57 -266 267 0
-57 60 -267 268 0
60 78 -80 -268 0
-16 36 65 269 0
-16 36 65 -269 0
-4 -18 26 270 0
26 -28 -78 -270 0
10 98 99 271 0
10 98 99 -271 0
40 82 272 273 0
40 82 272 -273 0
40 82 -272 273 0
40 82 -272 -273 0
-22 33 274 275 0
-22 33 274 -275 0
-22 33 -274 275 0
-22 33 -274 -275 0
5 -20 -25 276 0
-25 -29 -276 277 0
-29 42 -277 278 0
42 47 -278 279 0
47 -60 -279 280 0
-60 64 -280 281 0
64 -86 90 -281 0
7 -14 -82 282 0
7 -14 -82 -282 0
25 -35 -46 -83 0
24 26 44 283 0
44 80 -283 284 0
80 -83 90 -284 0
10 -41 285 286 0
10 -41 285 -286 0
10 -41 -285 286 0
10 -41 -285 -286 0
49 52 -79 85 0
-35 38 -48 99 0
22 23 54 287 0
22 23 54 -287 0
21 27 42 288 0
42 57 -288 289 0
57 64 -69 -289 0
-4 -21 -81 290 0
-4 -21 -81 -290 0
13 18 27 291 0
27 -39 -291 292 0
-39 -80 83 -292 0
1 3 -24 293 0
-24 -26 -293 294 0
-26 35 -294 295 0
35 -41 -295 296 0
-41 -45 -94 -296 0
44 49 -64 -90 0
2 29 -64 -93 0
18 74 297 298 0
18 74 297 -298 0
18 74 -297 298 0
18 74 -297 -298 0
-41 -51 -74 299 0
-74 81 -87 -299 0
7 10 -17 300 0
-17 23 -300 301 0
23 75 -79 -301 0
26 40 41 -76 0
-16 -20 48 302 0
48 49 -302 303 0
49 -56 -303 304 0
-56 -61 -67 -304 0
3 5 22 305 0
22 -35 -305 306 0
-35 42 -306 307 0
42 -43 -307 308 0
-43 -80 -308 309 0
-80 89 -92 -309 0
14 -25 -57 310 0
-57 -63 -76 -310 0
42 49 -50 311 0
-50 88 -98 -311 0
-11 -31 36 312 0
36 -43 -312 313 0
-43 -58 -313 314 0
-58 -62 -314 315 0
-62 -67 -97 -315 0
34 -60 -74 316 0
-74 -78 -316 317 0
-78 -82 92 -317 0
45 52 -63 318 0
-63 -92 94 -318 0
22 -35 -62 319 0
-62 -65 78 -319 0
-3 -27 74 320 0
74 -79 -320 321 0
-79 86 87 -321 0
-5 31 -41 322 0
-41 61 -322 323 0
61 63 -323 324 0
63 76 -324 325 0
76 77 -325 326 0
77 93 97 -326 0
56 69 72 327 0
72 74 -88 -327 0
-4 -45 -68 -74 0
-3 -14 57 328 0
57 58 -328 329 0
58 -64 85 -329 0
16 54 80 -93 0
16 -37 45 330 0
45 67 73 -330 0
-9 -28 41 331 0
41 -82 -89 -331 0
73 -86 332 333 0
73 -86 332 -333 0
73 -86 -332 333 0
73 -86 -332 -333 0
-11 -14 -35 334 0
-35 -47 -334 335 0
-47 71 -335 336 0
71 72 -83 -336 0
13 45 -50 337 0
-50 57 -337 338 0
57 84 -338 339 0
84 -85 -96 -339 0
-22 25 -34 340 0
-34 -37 -340 341 0
-37 -73 -341 342 0
-73 -78 -342 343 0
-78 84 85 -343 0
16 -31 35 93 0
-1 -4 -82 87 0
-6 16 69 344 0
69 -91 100 -344 0
3 15 39 345 0
39 -40 -345 346 0
-40 57 -346 347 0
57 58 -347 348 0
58 69 -348 349 0
69 77 -349 350 0
77 -85 -92 -350 0
3 -9 -53 351 0
-53 57 -351 352 0
57 -65 -352 353 0
-65 68 -69 -353 0
-10 -14 -26 354 0
-26 -69 85 -354 0
4 88 355 356 0
4 88 355 -356 0
4 88 -355 356 0
4 88 -355 -356 0
50 -63 80 357 0
50 -63 80 -357 0
15 -46 -55 87 0
-59 -61 67 358 0
-59 -61 67 -358 0
23 24 -33 359 0
-33 -56 -359 360 0
-56 -62 97 -360 0
17 34 44 361 0
44 45 -361 362 0
45 -48 -362 363 0
-48 -58 -363 364 0
-58 73 -84 -364 0
-26 29 -35 365 0
-35 38 93 -365 0
-31 47 87 366 0
-31 47 87 -366 0
37 -44 53 367 0
53 -60 -367 368 0
-60 84 93 -368 0
-4 22 369 370 0
-4 22 369 -370 0
-4 22 -369 370 0
-4 22 -369 -370 0
13 -17 -39 371 0
-39 42 -371 372 0
42 48 -372 373 0
48 -55 -373 374 0
-55 -58 -374 375 0
-58 79 -87 -375 0
-6 19 -24 376 0
-24 -40 -376 377 0
-40 43 -377 378 0
43 -46 -76 -378 0
-12 -21 32 379 0
32 -33 -379 380 0
-33 -51 -380 381 0
-51 -91 94 -381 0
39 78 90 382 0
39 78 90 -382 0
43 70 -98 100 0
-7 -33 88 383 0
-7 -33 88 -383 0
-26 41 -78 384 0
-26 41 -78 -384 0
-6 -48 385 386 0
-6 -48 385 -386 0
-6 -48 -385 386 0
-6 -48 -385 -386 0
-16 -25 45 387 0
45 -59 -387 388 0
-59 -71 100 -388 0
1 -39 -53 389 0
-53 59 -389 390 0
59 66 -390 391 0
66 93 -97 -391 0
25 -93 392 393 0
25 -93 392 -393 0
25 -93 -392 393 0
25 -93 -392 -393 0
-87 100 394 395 0
-87 100 394 -395 0
-87 100 -394 395 0
-87 100 -394 -395 0
10 -38 54 396 0
54 69 -396 397 0
69 -75 -397 398 0
-75 -85 92 -398 0
17 -18 -40 399 0
-40 64 100 -399 0
-30 -41 -46 400 0
-30 -41 -46 -400 0
-24 -79 401 402 0
-24 -79 401 -402 0
-24 -79 -401 402 0
-24 -79 -401 -402 0
20 -33 -48 403 0
20 -33 -48 -403 0
-4 -22 25 404 0
25 -35 -404 405 0
-35 50 68 -405 0
-32 -44 -50 406 0
-50 73 -406 407 0
73 78 -407 408 0
78 94 96 -408 0
35 75 80 95 0
-13 27 -29 -49 0
35 -36 48 93 0
1 17 19 409 0
19 -41 -409 410 0
-41 44 -410 411 0
44 46 -67 -411 0
24 -29 57 412 0
57 68 -412 413 0
68 -70 -74 -413 0
-2 -41 45 414 0
45 -62 75 -414 0
19 -29 -67 415 0
19 -29 -67 -415 0
-18 -27 33 416 0
33 -87 -99 -416 0
-3 27 29 82 0
37 50 -70 417 0
-70 -79 -417 418 0
-79 -86 90 -418 0
-12 -41 -52 419 0
-52 -69 -419 420 0
-69 72 -87 -420 0
-30 -62 421 422 0
-30 -62 421 -422 0
-30 -62 -421 422 0
-30 -62 -421 -422 0
-10 21 -63 423 0
-63 83 -423 424 0
83 -88 91 -424 0
-9 14 -27 425 0
-27 45 -425 426 0
45 -55 -426 427 0
-55 59 -427 428 0
59 62 -428 429 0
62 -64 -429 430 0
-64 -73 -99 -430 0
48 53 60 431 0
48 53 60 -431 0
54 92 432 433 0
54 92 432 -433 0
54 92 -432 433 0
54 92 -432 -433 0
-3 -20 -57 434 0
-57 67 -434 435 0
67 85 -435 436 0
85 92 93 -436 0
36 44 47 437 0
47 54 -437 438 0
54 -87 90 -438 0
18 -24 -41 439 0
-41 -43 -82 -439 0
27 -44 -49 440 0
-49 52 -440 441 0
52 66 -441 442 0
66 -77 99 -442 0
-17 35 38 443 0
38 44 -60 -443 0
-22 -51 -77 92 0
-7 42 -44 444 0
-44 77 88 -444 0
30 51 52 93 0
32 47 59 445 0
59 81 90 -445 0
46 -49 91 446 0
46 -49 91 -446 0
14 -31 -75 -79 0
-10 -14 -26 83 0
-5 7 -8 447 0
-8 18 -447 448 0
18 -22 -448 449 0
-22 -25 -449 450 0
-25 29 -450 451 0
29 -65 87 -451 0
28 52 55 452 0
55 58 -61 -452 0
67 -78 -89 453 0
67 -78 -89 -453 0
4 -16 18 454 0
18 22 -454 455 0
22 68 -455 456 0
68 86 -91 -456 0
-1 23 27 457 0
27 39 -457 458 0
39 -56 -458 459 0
-56 -95 100 -459 0
-40 -59 76 460 0
-40 -59 76 -460 0
-20 69 79 -88 0
4 65 69 -72 0
1 4 6 461 0
6 -20 -36 -461 0
-3 -16 69 462 0
69 -84 95 -462 0
-1 -43 -48 463 0
-48 -55 -463 464 0
-55 -74 -98 -464 0
-18 80 85 -88 0
7 69 -71 465 0
-71 -74 -95 -465 0
26 50 -60 466 0
26 50 -60 -466 0
1 -16 54 62 0
14 100 467 468 0
14 100 467 -468 0
14 100 -467 468 0
14 100 -467 -468 0
68 -77 98 469 0
68 -77 98 -469 0
-12 59 -71 470 0
-71 75 -470 471 0
75 77 -471 472 0
77 -80 88 -472 0
-34 69 75 473 0
-34 69 75 -473 0
-1 -5 -9 474 0
-9 36 -60 -474 0
-38 -48 59 60 0
-12 19 24 475 0
24 -29 -475 476 0
-29 39 -476 477 0
39 -60 73 -477 0
4 13 56 478 0
56 90 -95 -478 0
3 -9 29 479 0
29 76 -479 480 0
76 -78 -480 481 0
-78 -83 -481 482 0
-83 87 93 -482 0
30 47 -65 483 0
-65 -78 -483 484 0
-78 82 -484 485 0
82 94 -97 -485 0
-15 -35 -38 -54 0
-2 -32 -41 -61 0
20 31 -32 486 0
-32 -42 -486 487 0
-42 -45 -487 488 0
-45 48 -488 489 0
48 -56 -58 -489 0
-15 30 52 490 0
52 -75 -79 -490 0
13 -23 -31 491 0
-31 -36 -491 492 0
-36 -68 81 -492 0
-6 -59 -61 85 0
-14 18 -70 493 0
-70 -73 -98 -493 0
10 15 74 494 0
10 15 74 -494 0
-22 -62 87 495 0
-22 -62 87 -495 0
2 68 496 497 0
2 68 496 -497 0
2 68 -496 497 0
2 68 -496 -497 0
34 68 -82 -97 0
14 15 -27 498 0
-27 -57 -498 499 0
-57 -69 86 -499 0
11 14 16 500 0
16 48 -500 501 0
48 86 -92 -501 0
20 23 24 502 0
24 -56 -502 503 0
-56 58 -503 504 0
58 -78 -504 505 0
-78 82 -97 -505 0
10 -80 100 506 0
10 -80 100 -506 0
8 -54 74 -88 0
-13 16 -65 97 0
29 -81 507 508 0
29 -81 507 -508 0
29 -81 -507 508 0
29 -81 -507 -508 0
5 7 9 509 0
9 44 -509 510 0
44 -53 -510 511 0
-53 56 -511 512 0
56 76 77 -512 0
3 8 -50 86 0
32 -41 -53 513 0
-53 -81 -94 -513 0
-5 64 75 514 0
-5 64 75 -514 0
-14 23 33 515 0
33 -63 69 -515 0
-3 59 78 79 0
-2 -35 -55 516 0
-55 66 -516 517 0
66 -71 -517 518 0
-71 -90 -518 519 0
-90 92 97 -519 0
1 37 100 520 0
1 37 100 -520 0
-7 -29 -39 521 0
-39 82 -521 522 0
82 84 -99 -522 0
-2 -25 -40 523 0
-2 -25 -40 -523 0
19 58 524 525 0
19 58 524 -525 0
19 58 -524 525 0
19 58 -524 -525 0
-84 -97 526 527 0
-84 -97 526 -527 0
-84 -97 -526 527 0
-84 -97 -526 -527 0
-16 -18 -41 528 0
-41 43 -44 -528 0
22 60 -61 529 0
-61 -75 85 -529 0
-3 34 61 530 0
61 70 -530 531 0
70 -82 -86 -531 0
55 -58 532 533 0
55 -58 532 -533 0
55 -58 -532 533 0
55 -58 -532 -533 0
45 56 67 534 0
67 70 99 -534 0
24 -38 42 535 0
42 -53 -58 -535 0
7 -14 -23 536 0
-23 -40 -45 -536 0
7 63 64 537 0
64 -80 -537 538 0
-80 84 86 -538 0
9 10 -25 539 0
-25 -28 -539 540 0
-28 55 92 -540 0
12 -27 -36 541 0
-36 -73 -98 -541 0
-8 20 -21 542 0
-21 87 90 -542 0
-12 14 15 543 0
15 -17 -543 544 0
-17 19 -544 545 0
19 20 -545 546 0
20 -22 -546 547 0
-22 -27 87 -547 0
-7 73 -79 -91 0
-65 86 548 549 0
-65 86 548 -549 0
-65 86 -548 549 0
-65 86 -548 -549 0
-16 -25 37 550 0
37 48 -66 -550 0
-50 58 59 551 0
59 78 93 -551 0
11 -29 64 -100 0
3 -43 48 552 0
48 65 -93 -552 0
-13 -21 49 86 0
-1 -40 46 553 0
46 68 -553 554 0
68 82 -97 -554 0
1 -12 23 555 0
23 -62 -69 -555 0
-35 -40 87 556 0
-35 -40 87 -556 0
4 -18 -21 557 0
-21 31 -557 558 0
31 57 89 -558 0
6 70 77 559 0
77 86 -559 560 0
86 88 93 -560 0
-24 -33 44 561 0
44 45 -561 562 0
45 52 -562 563 0
52 -62 -563 564 0
-62 -89 97 -564 0
-16 35 -40 565 0
-40 51 -565 566 0
51 -68 -566 567 0
-68 73 -93 -567 0
-10 51 55 -84 0
-24 -37 56 568 0
56 -68 93 -568 0
-39 58 91 569 0
-39 58 91 -569 0
36 46 60 570 0
60 -66 -570 571 0
-66 69 -571 572 0
69 87 -89 -572 0
-25 45 74 573 0
-25 45 74 -573 0
7 8 -13 574 0
-13 -27 -574 575 0
-27 35 -575 576 0
35 -37 -87 -576 0
49 91 577 578 0
49 91 577 -578 0
49 91 -577 578 0
49 91 -577 -578 0
-31 42 579 580 0
-31 42 579 -580 0
-31 42 -579 580 0
-31 42 -579 -580 0
14 -29 -34 581 0
-34 -38 -581 582 0
-38 51 -582 583 0
51 56 -583 584 0
56 -69 -584 585 0
-69 73 -585 586 0
73 -95 99 -586 0
16 -23 -91 587 0
16 -23 -91 -587 0
34 -44 -55 -92 0
33 35 53 588 0
53 89 -588 589 0
89 -92 99 -589 0
19 -50 590 591 0
19 -50 590 -591 0
19 -50 -590 591 0
19 -50 -590 -591 0
8 58 61 592 0
61 -88 94 -592 0
-44 47 -57 593 0
-44 47 -57 -593 0
31 32 63 594 0
31 32 63 -594 0
30 36 51 595 0
51 66 -595 596 0
66 73 -78 -596 0
-13 -30 -90 597 0
-13 -30 -90 -597 0
-3 22 27 598 0
27 36 -598 599 0
36 -48 -599 600 0
-48 -89 92 -600 0
10 12 -33 601 0
-33 -35 -601 602 0
-35 44 -602 603 0
44 -50 -54 -603 0
-2 53 58 604 0
58 -73 -99 -604 0
11 38 -73 605 0
11 38 -73 -605 0
27 83 606 607 0
27 83 606 -607 0
27 83 -606 607 0
27 83 -606 -607 0
-50 -60 -83 608 0
-83 90 -96 -608 0
16 19 -26 609 0
-26 32 -609 610 0
32 84 -88 -610 0
35 49 50 -85 0
-1 -25 -29 611 0
-29 57 -611 612 0
57 58 -612 613 0
58 -65 -613 614 0
-65 -70 -76 -614 0
12 14 31 615 0
31 -44 -615 616 0
-44 51 -616 617 0
51 -52 -617 618 0
-52 -89 98 -618 0
-7 23 -34 619 0
-34 -66 -619 620 0
-66 -72 -85 -620 0
-6 51 58 621 0
58 -59 97 -621 0
1 -20 -40 622 0
-40 45 -622 623 0
45 -52 -623 624 0
-52 -67 -624 625 0
-67 -71 -76 -625 0
-1 3 43 626 0
43 -69 -626 627 0
-69 -83 -627 628 0
-83 -87 -91 -628 0
54 61 -72 629 0
54 61 -72 -629 0
31 -44 -71 630 0
-71 -74 87 -630 0
2 6 -12 631 0
-12 -36 -631 632 0
-36 83 -632 633 0
83 -88 -633 634 0
-88 95 96 -634 0
-14 40 -50 635 0
-50 70 -635 636 0
70 72 -636 637 0
72 85 86 -637 0
65 78 81 638 0
81 83 -97 -638 0
-13 -54 -77 -83 0
-2 -12 -23 639 0
-23 66 -639 640 0
66 67 -640 641 0
67 -73 94 -641 0
25 63 89 642 0
25 63 89 -642 0
25 -46 54 643 0
54 76 82 -643 0
-18 -37 50 644 0
50 -91 -98 -644 0
82 -95 645 646 0
82 -95 645 -646 0
82 -95 -645 646 0
82 -95 -645 -646 0
-5 -20 -23 647 0
-23 -44 -647 648 0
-44 -56 -648 649 0
-56 80 -649 650 0
80 81 -92 -650 0
22 54 -59 651 0
-59 66 -651 652 0
66 93 -94 -652 0
2 -31 34 653 0
34 -43 -653 654 0
-43 -46 -654 655 0
-46 -82 -655 656 0
-82 -87 -656 657 0
-87 93 94 -657 0
25 -40 44 658 0
25 -40 44 -658 0
9 -10 -13 659 0
-13 -91 96 -659 0
-15 25 78 -100 0
-1 -40 660 661 0
-1 -40 660 -661 0
-1 -40 -660 661 0
-1 -40 -660 -661 0
12 24 48 662 0
48 -49 -662 663 0
-49 66 -663 664 0
66 67 -664 665 0
67 78 -665 666 0
78 86 -94 -666 0
12 -18 -62 667 0
-62 66 -667 668 0
66 -74 -668 669 0
-74 77 -78 -669 0
-19 -23 -35 670 0
-35 -78 94 -670 0
13 97 671 672 0
13 97 671 -672 0
13 97 -671 672 0
13 97 -671 -672 0
59 -72 89 673 0
59 -72 89 -673 0
24 -55 -64 96 0
6 -68 -70 76 0
32 33 -42 674 0
-42 -65 -71 -674 0
2 26 43 675 0
43 53 -675 676 0
53 54 -676 677 0
54 -57 -677 678 0
-57 -67 -678 679 0
-67 82 -93 -679 0
-35 38 -44 47 0
2 -40 56 96 0
46 -53 62 680 0
62 -69 93 -680 0
-13 31 681 682 0
-13 31 681 -682 0
-13 31 -681 682 0
-13 31 -681 -682 0
22 -26 -48 683 0
-48 51 -683 684 0
51 57 -684 685 0
57 -64 -685 686 0
-64 -67 -686 687 0
-67 88 -96 -687 0
3 -15 28 688 0
28 -33 -688 689 0
-33 -49 -689 690 0
-49 52 -690 691 0
52 -55 -85 -691 0
-21 -30 41 692 0
41 -42 -692 693 0
-42 -60 -100 -693 0
-7 9 48 694 0
48 87 99 -694 0
52 79 695 696 0
52 79 695 -696 0
52 79 -695 696 0
52 79 -695 -696 0
-16 -42 97 697 0
-16 -42 97 -697 0
-35 50 -87 698 0
-35 50 -87 -698 0
9 -15 -57 699 0
9 -15 -57 -699 0
2 -6 -25 700 0
-25 -34 -700 701 0
-34 54 -701 702 0
54 -68 -80 -702 0
-2 10 -48 703 0
-48 -62 -703 704 0
-62 68 75 -704 0
9 34 705 706 0
9 34 705 -706 0
9 34 -705 706 0
9 34 -705 -706 0
1 -96 707 708 0
1 -96 707 -708 0
1 -96 -707 708 0
1 -96 -707 -708 0
9 19 -47 709 0
-47 63 -709 710 0
63 78 -710 711 0
78 -84 -94 -711 0
26 -27 -49 73 0
-39 -50 -55 712 0
-39 -50 -55 -712 0
-33 -88 713 714 0
-33 -88 713 -714 0
-33 -88 -713 714 0
-33 -88 -713 -714 0
29 -42 -57 715 0
29 -42 -57 -715 0
3 5 -13 716 0
-13 -31 -716 717 0
-31 34 -717 718 0
34 -44 -718 719 0
-44 59 77 -719 0
4 -41 -53 720 0
-53 -59 -720 721 0
-59 82 87 -721 0
44 84 89 722 0
44 84 89 -722 0
2 -22 36 723 0
36 -38 -58 -723 0
44 -45 57 724 0
44 -45 57 -724 0
10 26 28 725 0
28 -50 -725 726 0
-50 53 -726 727 0
53 55 -76 -727 0
33 -38 66 728 0
66 77 -728 729 0
77 -79 -83 -729 0
-11 -50 54 730 0
54 -71 84 -730 0
-8 28 -38 -76 0
-27 -36 42 -96 0
-12 36 38 91 0
46 59 -79 731 0
-79 -88 -731 732 0
-88 -95 99 -732 0
-21 -50 -61 733 0
-61 -78 -733 734 0
-78 81 -96 -734 0
-39 -71 735 736 0
-39 -71 735 -736 0
-39 -71 -735 736 0
-39 -71 -735 -736 0
-8 -19 30 737 0
30 -72 -737 738 0
-72 92 -738 739 0
92 -97 100 -739 0
-18 23 -36 740 0
-36 54 -740 741 0
54 -64 -741 742 0
-64 68 -742 743 0
68 71 -743 744 0
71 -73 -82 -744 0
1 57 62 69 0
1 2 63 745 0
1 2 63 -745 0
-12 -29 -66 746 0
-66 76 94 -746 0
45 53 56 747 0
56 63 -747 748 0
63 -96 99 -748 0
8 27 -33 749 0
-33 -50 -749 750 0
-50 -52 -91 -750 0
36 -53 -58 751 0
-58 61 -751 752 0
61 75 -86 -752 0
1 -26 44 753 0
44 47 -753 754 0
47 53 -69 -754 0
-31 -60 -86 755 0
-31 -60 -86 -755 0
2 -16 51 756 0
51 -53 -756 757 0
-53 86 97 -757 0
39 60 61 758 0
39 60 61 -758 0
41 56 68 759 0
68 90 99 -759 0
55 -58 100 760 0
55 -58 100 -760 0
23 -40 -84 -88 0
-19 -23 -35 92 0
-14 16 -17 761 0
-17 27 -761 762 0
27 -31 -762 763 0
-31 -34 -763 764 0
-34 38 -764 765 0
38 -74 96 -765 0
37 61 64 766 0
64 67 -70 -766 0
76 -87 -98 767 0
76 -87 -98 -767 0
-4 9 13 768 0
13 -25 -768 769 0
-25 27 -769 770 0
27 31 -770 771 0
31 77 -771 772 0
77 95 -100 -772 0
-10 32 36 773 0
36 48 -65 -773 0
-49 -68 85 774 0
-49 -68 85 -774 0
-29 78 88 -97 0
13 74 78 -81 0
4 10 13 775 0
13 15 -775 776 0
15 -29 -45 -776 0
-7 -12 -25 777 0
-25 78 -93 -777 0
-10 -52 -57 778 0
-57 -64 -83 -778 0
-4 -27 89 779 0
89 94 -97 -779 0
16 78 -80 -83 0
35 59 -69 780 0
35 59 -69 -780 0
9 10 -25 781 0
-25 63 71 -781 0
7 23 782 783 0
7 23 782 -783 0
7 23 -782 783 0
7 23 -782 -783 0
77 -86 784 785 0
77 -86 784 -785 0
77 -86 -784 785 0
77 -86 -784 -785 0
-21 68 -80 786 0
-80 84 -786 787 0
84 86 -787 788 0
86 -89 97 -788 0
-43 78 84 789 0
-43 78 84 -789 0
-10 -14 -18 790 0
-18 45 -69 -790 0
-47 -57 68 69 0
-4 -21 28 791 0
28 33 -791 792 0
33 -38 -792 793 0
-38 48 -793 794 0
48 -69 82 -794 0
2 13 22 795 0
22 65 99 -795 0
3 -6 12 796 0
12 -18 -796 797 0
-18 38 -797 798 0
38 85 -798 799 0
85 -87 -799 800 0
-87 -92 96 -800 0
39 56 -74 801 0
-74 -87 91 -801 0
-24 -44 -47 -63 0
-11 -41 -50 -70 0
29 40 -41 802 0
-41 -51 -802 803 0
-51 -54 -803 804 0
-54 57 -804 805 0
57 -65 -67 -805 0
-24 39 61 806 0
61 -84 -88 -806 0
22 -32 -40 807 0
-40 -45 -807 808 0
-45 -77 90 -808 0
-15 -68 -70 94 0
-7 20 809 810 0
-7 20 809 -810 0
-7 20 -809 810 0
-7 20 -809 -810 0
-23 27 -79 -82 0
19 24 83 811 0
19 24 83 -811 0
-31 -71 96 812 0
-31 -71 96 -812 0
-6 11 77 813 0
-6 11 77 -813 0
1 43 77 -91 0
-1 23 24 814 0
24 -36 -814 815 0
-36 -66 -815 816 0
-66 -78 95 -816 0
-6 20 23 817 0
23 25 -817 818 0
25 57 95 -818 0
9 29 32 819 0
32 33 -819 820 0
33 -65 -820 821 0
-65 67 -821 822 0
67 -87 91 -822 0
19 -89 823 824 0
19 -89 823 -824 0
19 -89 -823 824 0
19 -89 -823 -824 0
6 17 -63 825 0
-63 83 -97 -825 0
-22 25 -74 826 0
-22 25 -74 -826 0
38 -90 827 828 0
38 -90 827 -828 0
38 -90 -827 828 0
38 -90 -827 -828 0
14 16 18 829 0
18 53 -829 830 0
53 -62 -830 831 0
-62 65 -831 832 0
65 85 86 -832 0
12 17 -59 95 0
-3 -13 833 834 0
-3 -13 833 -834 0
-3 -13 -833 834 0
-3 -13 -833 -834 0
41 -50 -62 -90 0
-14 73 84 835 0
-14 73 84 -835 0
-23 32 42 836 0
42 -72 78 -836 0
1 6 -12 837 0
-12 68 -837 838 0
68 87 88 -838 0
9 -11 -44 839 0
-44 -64 -839 840 0
-64 75 -840 841 0
75 -80 -99 -841 0
-8 10 46 842 0
-8 10 46 -842 0
-16 -38 -48 843 0
-48 91 93 -843 0
-11 -34 -49 844 0
-11 -34 -49 -844 0
-6 28 67 845 0
-6 28 67 -845 0
-25 -27 -50 846 0
-50 52 -53 -846 0
31 69 -70 847 0
-70 -84 94 -847 0
-12 43 70 848 0
70 79 -848 849 0
79 -91 -95 -849 0
8 64 -67 850 0
8 64 -67 -850 0
54 65 76 79 0
33 -47 51 851 0
51 -62 -67 -851 0
16 -23 -32 852 0
-32 -49 -54 -852 0
1 16 72 853 0
72 73 -853 854 0
73 -89 -854 855 0
-89 93 95 -855 0
-7 18 19 856 0
19 -34 -856 857 0
-34 -37 64 -857 0
21 -36 -45 -82 0
-17 29 -30 858 0
-30 96 99 -858 0
-21 23 24 859 0
24 -26 -859 860 0
-26 28 -860 861 0
28 29 -861 862 0
29 -31 -862 863 0
-31 -36 96 -863 0
-16 82 -88 -100 0
-74 95 864 865 0
-74 95 864 -865 0
-74 95 -864 865 0
-74 95 -864 -865 0
2 -25 -34 866 0
-34 46 -866 867 0
46 57 -75 -867 0
-9 -59 67 868 0
67 68 87 -868 0
-2 20 -38 73 0
12 -52 57 74 0
-6 -22 -30 869 0
-30 58 95 -869 0
6 -10 -49 870 0
-49 55 -870 871 0
55 77 91 -871 0
10 -21 32 872 0
32 -71 -78 -872 0
-44 -49 96 873 0
-44 -49 96 -873 0
2 13 -27 874 0
-27 -30 -874 875 0
-30 40 -875 876 0
40 66 98 -876 0
6 15 79 877 0
79 86 -877 878 0
86 95 97 -878 0
-2 -33 -42 879 0
-42 53 -879 880 0
53 54 -880 881 0
54 61 -881 882 0
61 -71 -98 -882 0
-25 44 -49 883 0
-49 60 -883 884 0
60 -77 82 -884 0
2 -19 60 885 0
60 64 -93 -885 0
-33 -46 65 -77 0
-48 67 100 886 0
-48 67 100 -886 0
45 55 69 887 0
69 -75 -887 888 0
-75 78 -888 889 0
78 96 -98 -889 0
-34 54 83 890 0
-34 54 83 -890 0
16 17 -22 891 0
-22 -36 -891 892 0
-36 44 -892 893 0
44 -46 -96 -893 0
58 100 894 895 0
58 100 894 -895 0
58 100 -894 895 0
58 100 -894 -895 0
-4 8 -40 51 0
23 -38 -43 896 0
-43 -47 -896 897 0
-47 60 -897 898 0
60 65 -898 899 0
65 -78 82 -899 0
-1 25 -32 -100 0
-1 8 43 900 0
43 -53 -64 -900 0
42 44 62 98 0
3 28 -59 901 0
3 28 -59 -901 0
17 67 70 -97 0
-53 56 -66 902 0
-53 56 -66 -902 0
40 41 72 903 0
40 41 72 -903 0
39 45 60 904 0
60 75 -904 905 0
75 82 -87 -905 0
1 -22 -39 -99 0
-12 31 36 906 0
36 45 -906 907 0
45 -57 -98 -907 0
-8 19 21 908 0
21 -42 -908 909 0
-42 -44 -909 910 0
-44 53 -910 911 0
53 -59 -63 -911 0
-11 62 67 -82 0
20 47 -82 912 0
20 47 -82 -912 0
-5 36 92 913 0
-5 36 92 -913 0
-59 -69 -92 99 0
25 28 -35 914 0
-35 41 -914 915 0
41 93 -97 -915 0
44 58 59 -94 0
7 -10 -34 916 0
-34 -38 -916 917 0
-38 66 -917 918 0
66 67 -918 919 0
67 -74 -919 920 0
-74 -79 -85 -920 0
21 23 40 921 0
40 -53 -921 922 0
-53 60 -922 923 0
60 -61 -98 -923 0
6 -16 32 924 0
32 -43 -924 925 0
-43 -75 -925 926 0
-75 -81 -94 -926 0
-15 60 67 -68 0
10 -29 -49 927 0
-49 54 -927 928 0
54 -61 -928 929 0
-61 -76 -929 930 0
-76 -80 -85 -930 0
-10 12 52 931 0
52 -78 -931 932 0
-78 -92 -932 933 0
-92 -96 -100 -933 0
63 70 -81 934 0
63 70 -81 -934 0
4 5 40 935 0
40 -53 -935 936 0
-53 -80 -936 937 0
-80 -83 96 -937 0
11 15 -21 938 0
-21 -45 -938 939 0
-45 92 -97 -939 0
-6 -23 49 940 0
49 -59 -940 941 0
-59 79 -941 942 0
79 81 -942 943 0
81 94 95 -943 0
74 87 90 92 0
3 -22 -63 944 0
-63 -86 -92 -944 0
-11 -21 -32 945 0
-32 75 -945 946 0
75 76 -82 -946 0
34 72 98 947 0
34 72 98 -947 0
-7 34 -55 948 0
-55 63 -948 949 0
63 85 91 -949 0
-4 -27 -46 950 0
-46 59 -100 -950 0
-1 91 951 952 0
-1 91 951 -952 0
-1 91 -951 952 0
-1 91 -951 -952 0
2 -3 -14 953 0
-14 -29 -953 954 0
-29 -32 -954 955 0
-32 -53 -955 956 0
-53 -65 -956 957 0
-65 89 90 -957 0
2 3 31 958 0
31 63 -958 959 0
63 -68 75 -959 0
11 -40 43 960 0
43 -52 -960 961 0
-52 -55 -961 962 0
-55 -91 -96 -962 0
5 34 -49 53 0
-9 18 -19 963 0
-19 -22 -100 -963 0
-24 34 87 964 0
-24 34 87 -964 0
-3 -10 -49 965 0
-3 -10 -49 -965 0
21 33 57 966 0
57 -58 -966 967 0
-58 75 -967 968 0
75 76 -968 969 0
76 87 95 -969 0
3 21 -27 970 0
-27 -71 -970 971 0
-71 75 -971 972 0
75 -83 -972 973 0
-83 86 -87 -973 0
6 -28 -32 974 0
-32 -44 -87 -974 0
5 68 -81 98 0
33 -64 -73 975 0
33 -64 -73 -975 0
15 -77 -79 85 0
-2 41 42 976 0
42 -51 -976 977 0
-51 -74 -80 -977 0
11 35 52 978 0
52 62 -978 979 0
62 63 -979 980 0
63 -66 -980 981 0
-66 -76 91 -981 0
5 -44 47 982 0
47 -53 56 -982 0
2 11 -49 65 0
55 -62 71 -78 0
-5 -22 40 983 0
-5 -22 40 -983 0
31 -35 -57 984 0
-57 60 -984 985 0
60 66 -985 986 0
66 -73 -986 987 0
-73 -76 97 -987 0
-9 12 -24 988 0
-24 37 -988 989 0
37 -42 -989 990 0
-42 -58 -990 991 0
-58 61 -991 992 0
61 -64 -94 -992 0
8 -30 -39 993 0
-39 50 -993 994 0
50 -51 -69 -994 0
-16 18 57 96 0
6 61 88 995 0
6 61 88 -995 0
-25 -51 996 997 0
-25 -51 996 -997 0
-25 -51 -996 997 0
-25 -51 -996 -997 0
-44 59 -96 998 0
-44 59 -96 -998 0
18 -24 -66 999 0
18 -24 -66 -999 0
11 -15 -34 1000 0
-34 -43 -1000 1001 0
-43 63 -1001 1002 0
63 -77 -89 -1002 0
-11 19 -57 1003 0
-57 -71 -1003 1004 0
-71 77 84 -1004 0
-5 18 43 1005 0
-5 18 43 -1005 0
-3 10 1006 1007 0
-3 10 1006 -1007 0
-3 10 -1006 1007 0
-3 10 -1006 -1007 0
18 28 -56 1008 0
-56 72 -1008 1009 0
72 87 -93 -1009 0
35 -36 -58 82 0
-48 -59 -64 1010 0
-48 -59 -64 -1010 0
-42 -97 1011 1012 0
-42 -97 1011 -1012 0
-42 -97 -1011 1012 0
-42 -97 -1011 -1012 0
38 -51 -66 1013 0
38 -51 -66 -1013 0
12 14 -22 1014 0
-22 -40 -1014 1015 0
-40 43 -1015 1016 0
43 -53 -1016 1017 0
-53 68 86 -1017 0
13 -50 -62 1018 0
-62 -68 -1018 1019 0
-68 91 96 -1019 0
53 93 98 1020 0
53 93 98 -1020 0
11 -31 45 1021 0
45 -47 -67 -1021 0
53 -54 66 1022 0
53 -54 66 -1022 0
19 35 37 1023 0
37 -59 -1023 1024 0
-59 62 -1024 1025 0
62 64 -85 -1025 0
42 -47 75 1026 0
75 86 -1026 1027 0
86 -88 -92 -1027 0
-20 -59 63 1028 0
63 -80 93 -1028 0
-5 -17 37 1029 0
37 -47 -85 -1029 0
-36 -45 51 1030 0
-36 -45 51 -1030 0
-4 8 -21 1031 0
-21 45 -1031 1032 0
45 47 100 -1032 0
-5 55 68 1033 0
68 -88 -97 -1033 0
-30 -59 -70 1034 0
-70 -87 90 -1034 0
1 -6 9 1035 0
9 -48 -80 -1035 0
-17 -28 39 -81 0
-27 32 -45 1036 0
-45 63 -1036 1037 0
63 -73 -1037 1038 0
-73 77 -1038 1039 0
77 80 -1039 1040 0
80 -82 -91 -1040 0
10 66 71 78 0
3 10 11 72 0
-5 8 -21 1041 0
-21 -38 -1041 1042 0
-38 -75 85 -1042 0
54 62 65 72 0
17 36 -42 1043 0
-42 -59 -1043 1044 0
-59 -61 -100 -1044 0
45 -62 -67 1045 0
-67 70 -1045 1046 0
70 84 -95 -1046 0
10 -35 53 1047 0
53 56 -1047 1048 0
56 62 -78 -1048 0
6 -40 -69 -95 0
11 -25 60 1049 0
60 -62 95 -1049 0
8 48 69 70 0
9 50 65 1050 0
65 77 99 -1050 0
64 -67 1051 1052 0
64 -67 1051 -1052 0
64 -67 -1051 1052 0
64 -67 -1051 -1052 0
1 32 -49 1053 0
-49 -93 -97 -1053 0
5 -28 -32 -44 0
-23 25 -26 1054 0
-26 36 -1054 1055 0
36 -40 -1055 1056 0
-40 -43 -1056 1057 0
-43 47 -83 -1057 0
-7 46 70 1058 0
70 73 -1058 1059 0
73 76 -79 -1059 0
4 -9 85 -96 0
-13 18 22 1060 0
22 -34 -1060 1061 0
-34 36 -1061 1062 0
36 40 86 -1062 0
-19 41 45 1063 0
45 57 -74 -1063 0
-6 -58 -77 94 0
-38 87 97 1064 0
-38 87 97 -1064 0
22 83 87 -90 0
-2 13 19 1065 0
19 22 -1065 1066 0
22 24 -1066 1067 0
24 -38 -54 -1067 0
-16 -21 -34 87 0
3 -6 -19 1068 0
-19 -61 -1068 1069 0
-61 -66 -1069 1070 0
-66 -73 -92 -1070 0
-13 -36 98 1071 0
-13 -36 98 -1071 0
25 87 -89 -92 0
44 68 -78 1072 0
44 68 -78 -1072 0
18 19 -34 1073 0
-34 72 80 -1073 0
16 32 1074 1075 0
16 32 1074 -1075 0
16 32 -1074 1075 0
16 32 -1074 -1075 0
6 86 -95 1076 0
6 86 -95 -1076 0
-30 77 -89 1077 0
-89 93 -1077 1078 0
93 95 -98 -1078 0
-52 87 93 1079 0
-52 87 93 -1079 0
-19 -23 -27 1080 0
-27 54 -78 -1080 0
-56 -66 77 78 0
8 -13 -30 1081 0
-30 37 -1081 1082 0
37 42 -1082 1083 0
42 -47 -1083 1084 0
-47 57 -1084 1085 0
57 -78 91 -1085 0
-1 5 11 1086 0
11 22 -1086 1087 0
22 31 74 -1087 0
12 -15 21 1088 0
21 -27 -1088 1089 0
-27 47 -1089 1090 0
47 94 -96 -1090 0
48 65 -83 1091 0
-83 -96 100 -1091 0
-33 -53 -56 -72 0
-20 -50 -59 -79 0
38 49 -50 1092 0
-50 -60 -1092 1093 0
-60 -63 -1093 1094 0
-63 66 -1094 1095 0
66 -74 -76 -1095 0
-33 48 70 1096 0
70 -93 -97 -1096 0
3 31 -41 1097 0
-41 -49 -1097 1098 0
-49 -54 -1098 1099 0
-54 -86 99 -1099 0
-24 -77 -79 1100 0
-24 -77 -79 -1100 0
-16 29 1101 1102 0
-16 29 1101 -1102 0
-16 29 -1101 1102 0
-16 29 -1101 -1102 0
-32 36 -88 -91 0
5 28 33 92 0
-40 -80 1103 1104 0
-40 -80 1103 -1104 0
-40 -80 -1103 1104 0
-40 -80 -1103 -1104 0
-15 20 86 1105 0
-15 20 86 -1105 0
10 52 86 -100 0
4 -10 32 1106 0
32 33 -1106 1107 0
33 -45 -1107 1108 0
-45 -75 -87 -1108 0
-15 29 32 1109 0
32 34 66 -1109 0
18 38 41 1110 0
41 42 -1110 1111 0
42 -74 -1111 1112 0
-74 76 -1112 1113 0
76 -96 100 -1113 0
-6 28 -98 1114 0
-6 28 -98 -1114 0
15 26 -72 92 0
-31 34 -83 1115 0
-31 34 -83 -1115 0
47 -99 1116 1117 0
47 -99 1116 -1117 0
47 -99 -1116 1117 0
47 -99 -1116 -1117 0
4 23 25 1118 0
25 27 -1118 1119 0
27 62 -1119 1120 0
62 -71 -1120 1121 0
-71 74 -1121 1122 0
74 94 95 -1122 0
21 26 -68 1123 0
21 26 -68 -1123 0
-12 -22 1124 1125 0
-12 -22 1124 -1125 0
-12 -22 -1124 1125 0
-12 -22 -1124 -1125 0
50 -59 -71 -99 0
-23 82 93 1126 0
-23 82 93 -1126 0
-32 41 51 1127 0
51 -81 87 -1127 0
-8 10 15 1128 0
15 -21 -1128 1129 0
-21 77 -1129 1130 0
77 96 97 -1130 0
18 -20 -53 1131 0
-53 -73 -1131 1132 0
-73 84 -89 -1132 0
2 -17 19 55 0
-25 -47 -57 100 0
-20 -43 -58 1133 0
-20 -43 -58 -1133 0
-2 -15 37 76 0
3 -34 -36 1134 0
-36 -59 -1134 1135 0
-59 61 -62 -1135 0
-4 40 78 1136 0
78 -79 -93 -1136 0
-21 52 79 1137 0
79 88 -100 -1137 0
17 73 -76 1138 0
17 73 -76 -1138 0
63 74 85 88 0
42 -56 60 1139 0
60 -71 -76 -1139 0
2 4 25 1140 0
25 -32 -1140 1141 0
-32 -41 -1141 1142 0
-41 -58 -63 -1142 0
10 25 81 1143 0
81 82 -98 -1143 0
-16 27 28 1144 0
28 -43 -1144 1145 0
-43 -46 73 -1145 0
5 8 30 1146 0
30 -45 -1146 1147 0
-45 -54 -91 -1147 0
5 -26 38 -39 0
-9 -30 32 1148 0
32 33 -1148 1149 0
33 -35 -1149 1150 0
-35 37 -1150 1151 0
37 38 -1151 1152 0
38 -40 -45 -1152 0
4 -25 91 -97 0
11 -34 -43 1153 0
-43 55 -1153 1154 0
55 66 -84 -1154 0
-18 -68 76 1155 0
76 77 96 -1155 0
-11 29 -47 82 0
4 21 -61 1156 0
-61 66 83 -1156 0
-15 -31 -39 67 0
15 -19 -58 1157 0
-58 64 -1157 1158 0
64 86 100 -1158 0
5 19 -30 1159 0
-30 41 -1159 1160 0
41 -80 -87 -1160 0
7 -53 -58 1161 0
7 -53 -58 -1161 0
4 6 11 1162 0
11 22 -1162 1163 0
22 -36 -1163 1164 0
-36 -39 -1164 1165 0
-39 49 75 -1165 0
-7 15 24 1166 0
24 88 95 -1166 0
-11 -42 -51 1167 0
-51 62 -1167 1168 0
62 63 -1168 1169 0
63 70 -80 -1169 0
-2 -34 53 1170 0
53 -58 -1170 1171 0
-58 69 -1171 1172 0
69 -86 91 -1172 0
11 -28 69 73 0
9 -42 -55 1173 0
-55 74 -86 -1173 0
5 -7 -57 76 0
54 64 78 1174 0
78 -84 87 -1174 0
-5 -43 63 92 0
25 26 -31 1175 0
-31 -45 -1175 1176 0
-45 53 -55 -1176 0
9 37 1177 1178 0
9 37 1177 -1178 0
9 37 -1177 1178 0
9 37 -1177 -1178 0
-13 17 -49 60 0
-9 32 -47 1179 0
-47 -52 -1179 1180 0
-52 -56 -1180 1181 0
-56 69 -1181 1182 0
69 74 -1182 1183 0
74 -87 91 -1183 0
-10 34 -41 1184 0
-10 34 -41 -1184 0
7 -10 17 1185 0
17 52 -1185 1186 0
52 -62 -73 -1186 0
51 53 71 1187 0
51 53 71 -1187 0
-6 12 37 -68 0
26 76 79 1188 0
26 76 79 -1188 0
-62 65 -75 1189 0
-62 65 -75 -1189 0
49 50 81 1190 0
49 50 81 -1190 0
-8 48 54 1191 0
54 69 -1191 1192 0
69 84 -1192 1193 0
84 91 -96 -1193 0
-7 10 -31 -48 0
-21 40 45 1194 0
45 54 -66 -1194 0
-17 28 30 1195 0
30 -51 -1195 1196 0
-51 -53 -1196 1197 0
-53 62 -1197 1198 0
62 -68 -72 -1198 0
-20 71 76 -91 0
1 29 56 -91 0
-1 8 -14 45 0
2 -6 -68 -78 0
-3 34 37 1199 0
37 -44 50 -1199 0
53 67 68 1200 0
53 67 68 -1200 0
-7 16 -19 1201 0
-19 -43 -1201 1202 0
-43 -47 -1202 1203 0
-47 75 -1203 1204 0
75 76 -1204 1205 0
76 -83 -1205 1206 0
-83 -88 -94 -1206 0
-3 30 32 1207 0
32 49 -1207 1208 0
49 -62 -1208 1209 0
-62 69 -70 -1209 0
15 -25 41 1210 0
41 -52 -1210 1211 0
-52 -84 -90 -1211 0
-24 69 76 -77 0
-1 -5 -9 1212 0
-9 19 -1212 1213 0
19 -38 -1213 1214 0
-38 -58 -1214 1215 0
-58 63 -1215 1216 0
63 -70 -1216 1217 0
-70 -85 -1217 1218 0
-85 -89 -94 -1218 0
-19 21 61 -87 0
5 72 79 -90 0
1 -6 13 1219 0
13 14 -1219 1220 0
14 49 -1220 1221 0
49 -62 -1221 1222 0
-62 -89 -92 -1222 0
3 4 20 1223 0
20 24 -1223 1224 0
24 -30 -54 -1224 0
1 -15 -32 1225 0
-32 58 -1225 1226 0
58 -68 -1226 1227 0
-68 88 90 -1227 0
-1 83 96 99 0
12 -31 -72 -95 0
7 -20 -30 1228 0
-30 -41 -1228 1229 0
-41 84 -1229 1230 0
84 85 -91 -1230 0
43 81 1231 1232 0
43 81 1231 -1232 0
43 81 -1231 1232 0
43 81 -1231 -1232 0
-9 -16 43 1233 0
43 -64 -1233 1234 0
-64 72 -1234 1235 0
72 94 100 -1235 0
-13 -36 -55 68 0
-10 100 1236 1237 0
-10 100 1236 -1237 0
-10 100 -1236 1237 0
-10 100 -1236 -1237 0
11 -12 -23 1238 0
-23 -38 -1238 1239 0
-38 -41 -1239 1240 0
-41 -62 -1240 1241 0
-62 -74 -1241 1242 0
-74 98 99 -1242 0
-5 11 12 1243 0
12 40 -1243 1244 0
40 72 -1244 1245 0
72 -77 84 -1245 0
20 -49 52 1246 0
52 -61 -1246 1247 0
-61 -64 -100 -1247 0
-9 14 43 1248 0
43 -58 62 -1248 0
-18 27 -28 -31 0
-33 43 96 1249 0
-33 43 96 -1249 0
4 -12 -19 -58 0
30 42 66 1250 0
66 -67 -1250 1251 0
-67 84 -1251 1252 0
84 85 96 -1252 0
12 30 -36 1253 0
-36 -80 -1253 1254 0
-80 84 -1254 1255 0
84 -92 -1255 1256 0
-92 95 -96 -1256 0
15 -37 -41 1257 0
-41 -53 -96 -1257 0
7 31 1258 1259 0
7 31 1258 -1259 0
7 31 -1258 1259 0
7 31 -1258 -1259 0
14 77 -90 1260 0
14 77 -90 -1260 0
42 -73 -82 1261 0
42 -73 -82 -1261 0
24 -86 -88 94 0
-11 50 51 1262 0
51 -60 -1262 1263 0
-60 -83 -89 -1263 0
20 44 61 1264 0
61 71 -1264 1265 0
71 72 -1265 1266 0
72 -75 -1266 1267 0
-75 -85 100 -1267 0
14 -53 56 1268 0
56 -62 65 -1268 0
11 20 -58 74 0
64 -71 80 -87 0
6 -14 -31 49 0
-3 40 -44 1269 0
-44 -66 -1269 1270 0
-66 69 -1270 1271 0
69 75 -1271 1272 0
75 -82 -85 -1272 0
-18 21 -33 1273 0
-33 46 -1273 1274 0
46 -51 -1274 1275 0
-51 -67 -1275 1276 0
-67 70 -73 -1276 0
5 17 -39 1277 0
-39 -48 -1277 1278 0
-48 59 -1278 1279 0
59 -60 -78 -1279 0
-25 27 66 1280 0
-25 27 66 -1280 0
15 70 97 1281 0
15 70 97 -1281 0
-5 -34 -60 1282 0
-5 -34 -60 -1282 0
-53 68 1283 1284 0
-53 68 1283 -1284 0
-53 68 -1283 1284 0
-53 68 -1283 -1284 0
27 -33 -75 1285 0
27 -33 -75 -1285 0
20 -24 -43 1286 0
-43 -52 -1286 1287 0
-52 72 -1287 1288 0
72 -86 -98 -1288 0
-20 28 -66 1289 0
-66 -80 -1289 1290 0
-80 86 93 -1290 0
-14 27 52 1291 0
-14 27 52 -1291 0
-2 -12 19 1292 0
-2 -12 19 -1292 0
27 37 -65 1293 0
-65 81 96 -1293 0
44 -45 -67 91 0
-6 -57 -68 -73 0
47 -60 -75 1294 0
47 -60 -75 -1294 0
5 21 23 1295 0
23 -31 -1295 1296 0
-31 -49 -1296 1297 0
-49 52 -1297 1298 0
52 -62 -1298 1299 0
-62 77 95 -1299 0
2 7 22 1300 0
22 -59 -1300 1301 0
-59 -71 -1301 1302 0
-71 -77 100 -1302 0
20 -40 54 1303 0
54 -56 -76 -1303 0
62 -63 75 1304 0
62 -63 75 -1304 0
-1 28 44 1305 0
44 46 -1305 1306 0
46 -68 -1306 1307 0
-68 71 -1307 1308 0
71 73 -94 -1308 0
2 51 -56 1309 0
-56 84 -1309 1310 0
84 95 -97 -1310 0
-29 -68 72 -89 0
-14 -26 46 1311 0
46 -56 -94 -1311 0
9 -45 -54 60 0
-6 -13 17 1312 0
17 -30 -1312 1313 0
-30 54 56 -1313 0
-14 64 77 -97 0
-39 -68 -79 1314 0
-79 -96 99 -1314 0
10 -15 18 1315 0
18 -57 -89 -1315 0
-26 -37 48 -90 0
-36 41 -54 1316 0
-54 72 -1316 1317 0
72 -82 -1317 1318 0
-82 86 -1318 1319 0
86 89 -1319 1320 0
89 -91 -100 -1320 0
19 75 80 87 0
12 19 20 81 0
-14 17 -30 1321 0
-30 -47 -1321 1322 0
-47 -84 94 -1322 0
-9 63 71 1323 0
71 74 81 -1323 0
-4 26 45 1324 0
45 -51 -1324 1325 0
-51 -68 -70 -1325 0
54 -71 -76 1326 0
-76 79 93 -1326 0
-4 19 -44 1327 0
-44 62 -1327 1328 0
62 65 -1328 1329 0
65 71 -87 -1329 0
4 15 -49 -78 0
20 -34 69 -71 0
8 17 57 1330 0
57 78 79 -1330 0
18 59 74 86 0
-7 73 -76 1331 0
-7 73 -76 -1331 0
-2 -6 1332 1333 0
-2 -6 1332 -1333 0
-2 -6 -1332 1333 0
-2 -6 -1332 -1333 0
10 41 -58 1334 0
10 41 -58 -1334 0
14 -37 -41 -53 0
-32 34 -35 1335 0
-35 45 -1335 1336 0
45 -49 -1336 1337 0
-49 -52 -1337 1338 0
-52 56 -92 -1338 0
-5 -16 55 1339 0
55 79 -1339 1340 0
79 82 -1340 1341 0
82 85 -88 -1341 0
13 -18 94 1342 0
13 -18 94 -1342 0
-22 27 31 1343 0
31 -43 -1343 1344 0
-43 45 -1344 1345 0
45 49 95 -1345 0
3 -28 50 1346 0
50 54 -1346 1347 0
54 66 -83 -1347 0
6 -15 -67 -86 0
-47 96 1348 1349 0
-47 96 1348 -1349 0
-47 96 -1348 1349 0
-47 96 -1348 -1349 0
31 92 96 -99 0
-11 22 28 1350 0
28 31 -1350 1351 0
31 33 -1351 1352 0
33 -47 -63 -1352 0
-1 -25 -30 1353 0
-30 -43 96 -1353 0
7 12 -15 1354 0
-15 -28 -1354 1355 0
-28 -70 -1355 1356 0
-70 -75 -82 -1356 0
-1 -22 -45 1357 0
-1 -22 -45 -1357 0
34 96 -98 1358 0
34 96 -98 -1358 0
